10	6	3.6
2 2 1 3 4 8 4 1 5 2 4 4 5 6 3
2 6 1 9 2 6 3 2 4 4 5 8 6 6 4 1 6 2 9 5 6 6 4
2 5 1 7 3 9 4 2 5 5 6 1 4 2 4 3 1 4 4 6 8
2 3 1 8 4 2 6 9 6 1 9 2 1 3 2 4 4 5 4 6 9
2 4 2 3 3 3 4 1 6 7 1 4 9
2 1 4 4 5 1 3 2 9 4 3 5 1 6 7
2 2 1 2 5 5 4 1 1 2 3 4 5 5 6
2 2 2 6 5 3 2 1 8 2 9
2 4 1 3 3 3 4 1 5 7 5 2 2 3 1 4 4 5 5 6 7
2 2 3 9 5 9 6 1 8 2 8 3 3 4 6 5 4 6 4
